TCS_Benchmarks/redos_fix/corpus2_output_distinct_4363_4362_28_0.txt
(.*)(\s+)
(.*)(\s+time\s+<=)(\s+)